problems/csplib-prob015/SchursLemma-models/noch/O2/lingeling/model_1_4-3-17-solution000001.solution
language Essence 1.3

letting boxes be partition({1, 5, 10, 13, 17}, {2, 3, 6, 7, 11, 12, 16}, {4, 8, 9, 14, 15})
